# ========================
# TONTO generated CIF file
# ========================

data_yq28

_audit_creation_date               2016-2-7
_audit_creation_method             'Tonto 3.6.0 github v. 22fd8aa'

# This is an incomplete CIF file, you must edit it
# in order for it to be acceptable

# ================
# Publication info
# ================

_publ_contact_author
;
    Dr. Tonto Magnifico
;
_publ_contact_author_email         'tonto.magnifico@gmail.com'
_publ_contact_author_fax           'use e-mail in century 21'
_publ_contact_author_phone         '+61 8 6488 3138'
_publ_requested_journal            'IUCrJ'
_publ_section_title
;
   Hirshfeld-atom-refinement (HAR) for yq28
   See: SC. Capelli, H.-B. Burgi, B. Dittrich, S.Grabowsky
        and Dylan Jayatilaka, IUCrJ (2014). 1, 361â€“379
;

loop_
    _publ_author_name
    'Tonto Magnifico'

_publ_author_address
;
    Dr. Tonto Magnifico
    1 El Camino Ciberespacio
    Tierra Austral del Espiritu Santo
;

# ====================
# Chemical information
# ====================

_chemical_name_common              yq28
_chemical_formula_sum              'C15 Cl2 H12 N2 O2 S'
_chemical_formula_moiety           'C15 Cl2 H12 N2 O2 S'
_chemical_formula_weight           355.2451
_chemical_compound_source          'see text'
_chemical_absolute_configuration   unk

# Tonto specific keys

_chemical_formula_spin_mult         1
_chemical_formula_n_electrons       182
_chemical_formula_n_alpha_electrons 91
_chemical_formula_n_beta_electrons  91

# ====================
# Symmetry information
# ====================

_symmetry_cell_setting             Triclinic
_symmetry_space_group_name_H-M     'p -1'
_symmetry_space_group_name_Hall    '-p 1'
_symmetry_Int_Tables_number        '2'

loop_
    _symmetry_equiv_pos_as_xyz
'+x, +y, +z'
'-x, -y, -z'

# =====================
# Unit cell information
# =====================

_cell_length_a                      7.585300(0)
_cell_length_b                      7.941200(0)
_cell_length_c                      14.059000(0)
_cell_angle_alpha                   78.711000(0)
_cell_angle_beta                    88.462000(0)
_cell_angle_gamma                   63.829000(0)
_cell_volume                        743.634057(0)

_cell_formula_units_Z               2.00000

_atom_sites_Cartn_tran_matrix_11    7.585300
_atom_sites_Cartn_tran_matrix_21    0.000000
_atom_sites_Cartn_tran_matrix_31    0.000000
_atom_sites_Cartn_tran_matrix_12    3.502479
_atom_sites_Cartn_tran_matrix_22    7.127082
_atom_sites_Cartn_tran_matrix_32    0.000000
_atom_sites_Cartn_tran_matrix_13    0.377343
_atom_sites_Cartn_tran_matrix_23    2.881098
_atom_sites_Cartn_tran_matrix_33    13.755449
_atom_sites_Cartn_tran_vector_1     0.000000
_atom_sites_Cartn_tran_vector_2     0.000000
_atom_sites_Cartn_tran_vector_3     0.000000

# ==================
# Refinement details
# ==================

# Tonto-specific keys and data

_refine_ls_software                'Tonto'
_refine_ls_software_version        '3.6.0 v. 22fd8aa'
_refine_ls_software_platform       'GNU-mpif90-on-LINUX'
_refine_ls_software_build_date     'So 7. Feb 03:14:10 CET 2016'
_refine_ls_kind                    'Hirshfeld atom refinement (HAR)'

_refine_ls_QM_calc_method          'Kohn-Sham/becke88lyp/SCCF L=1 R=8.0 A'
_refine_ls_QM_calc_ao_kind         'restricted'
_refine_ls_QM_calc_basis           'cc-pVTZ'
_refine_ls_QM_calc_basis_kind      'cartesian'
_refine_ls_QM_calc_basis_max_l     '3'
_refine_ls_QM_calc_unit            'As listed in _atom_site_* block'

_refine_ls_SVD_threshold           0.1E-04
_refine_ls_coordinate_system       cartesian

# Standard CIF keys and data

_refine_ls_structure_factor_coeff  F
_refine_ls_matrix_type             full
_refine_ls_R_factor_gt             0.0288
_refine_ls_R_factor_all            0.0288
_refine_ls_wR_factor_gt            0.0240
_refine_ls_wR_factor_all           0.0240
_refine_ls_R_Fsqd_factor           0.0319
_refine_ls_goodness_of_fit_gt      1.0258
_refine_ls_goodness_of_fit_all     1.0258
_refine_ls_number_reflns           21534
_refine_ls_number_parameters       307
_refine_ls_number_restraints       0
_refine_ls_number_constraints      0
_refine_ls_hydrogen_treatment      refall
_refine_ls_weighting_scheme        sigma
_refine_ls_weighting_details       'w=1/\s(F)'
_refine_ls_shift/su_conv_tol       0.0100
_refine_ls_shift/su_max            0.0000
_refine_ls_shift/su_max_mean       0.0000
_refine_ls_shift/su_max_par        ''
_refine_ls_extinction_method       none

_refine_diff_density_max           0.0000
_refine_diff_density_min           0.0000
_refine_diff_density_rms           0.0000
_refine_diff_density_max_atom      0.0000
_refine_diff_density_max_atom_tag
_refine_diff_density_min_atom      0.0000
_refine_diff_density_min_atom_tag
_refine_diff_density_rms_atom      0.0000

_refine_special_details
;
. If constraints were applied they are defined by zero
  eigenvalues of the least-squares hessian, see the
  value of _refine_ls_SVD_threshold
;

# =====================
# Coordinates and ADP's
# =====================

loop_
_atom_site_label
_atom_site_fract_x
_atom_site_fract_y
_atom_site_fract_z
_atom_site_adp_type
_atom_site_occupancy
Cl1 0.19368(1) 0.488820(8) 0.919252(5) Uani 1.000000000
Cl2 -0.33732(1) 1.191998(9) 0.942466(5) Uani 1.000000000
S   0.54774(1) 0.189284(8) 0.453259(5) Uani 1.000000000
H1  -0.167(1) 0.9859(9) 0.6374(5) Uani 1.000000000
O1  0.39969(3) 0.35593(3) 0.60226(2) Uani 1.000000000
O2  0.86713(3) -0.13578(3) 0.40014(2) Uani 1.000000000
N1  0.22250(4) 0.52230(3) 0.45910(2) Uani 1.000000000
N2  0.30857(4) 0.43387(3) 0.30965(2) Uani 1.000000000
C1  0.58546(4) 0.14020(3) 0.33746(2) Uani 1.000000000
C2  0.44414(4) 0.28807(3) 0.27079(2) Uani 1.000000000
C3  0.75293(4) -0.03780(3) 0.32818(2) Uani 1.000000000
C4  0.34531(4) 0.39860(3) 0.40444(2) Uani 1.000000000
C5  -0.07530(4) 0.84640(3) 0.91692(2) Uani 1.000000000
C6  0.25531(4) 0.49415(3) 0.55782(2) Uani 1.000000000
C7  0.00147(4) 0.76116(3) 0.75762(2) Uani 1.000000000
C8  -0.21180(4) 1.02797(3) 0.87106(2) Uani 1.000000000
C9  -0.24950(4) 1.07947(3) 0.77047(2) Uani 1.000000000
C10 0.78604(5) -0.10319(4) 0.23313(2) Uani 1.000000000
C11 0.02812(4) 0.71548(3) 0.85950(2) Uani 1.000000000
C12 0.42532(5) 0.30797(4) 0.16316(2) Uani 1.000000000
C13 0.10537(4) 0.64249(3) 0.60372(2) Uani 1.000000000
C14 0.12581(4) 0.62456(3) 0.70008(2) Uani 1.000000000
C15 -0.14258(4) 0.94564(3) 0.71525(2) Uani 1.000000000
H2  0.249(1) 0.4995(9) 0.7396(5) Uani 1.000000000
H3  -0.355(1) 1.2213(9) 0.7359(5) Uani 1.000000000
H4  0.660(1) -0.119(1) 0.2102(6) Uani 1.000000000
H5  0.103(1) 0.639(1) 0.4243(5) Uani 1.000000000
H6  -0.050(1) 0.809(1) 0.9947(5) Uani 1.000000000
H7  0.291(1) 0.436(1) 0.1343(6) Uani 1.000000000
H8  -0.012(1) 0.760(1) 0.5575(5) Uani 1.000000000
H9  0.916(1) -0.237(1) 0.2414(5) Uani 1.000000000
H10 0.424(1) 0.182(1) 0.1447(5) Uani 1.000000000
H11 0.803(1) 0.000(1) 0.1763(5) Uani 1.000000000
H12 0.545(1) 0.325(1) 0.1290(6) Uani 1.000000000

loop_
_atom_site_aniso_label
_atom_site_aniso_U_11
_atom_site_aniso_U_22
_atom_site_aniso_U_33
_atom_site_aniso_U_12
_atom_site_aniso_U_13
_atom_site_aniso_U_23
Cl1 0.00666(2) 0.00523(2) 0.00566(2) -0.00007(2) 0.00018(2) -0.00054(2)
Cl2 0.00740(2) 0.00710(2) 0.00802(2) -0.00035(2) 0.00107(2) -0.00421(2)
S 0.00472(2) 0.00421(2) 0.00412(2) -0.00094(2) 0.00028(2) -0.00108(2)
H1 0.033(4) 0.022(5) 0.014(4) -0.013(4) 0.003(4) -0.005(4)
O1 0.00689(6) 0.00703(6) 0.00603(6) -0.00053(5) -0.00042(6) -0.00154(5)
O2 0.00712(7) 0.00703(6) 0.00727(7) 0.00025(5) -0.00058(6) -0.00159(5)
N1 0.00576(6) 0.00560(6) 0.00493(7) -0.00067(5) 0.00044(6) -0.00190(5)
N2 0.00575(6) 0.00537(6) 0.00488(6) -0.00073(5) -0.00001(6) -0.00146(5)
C1 0.00536(7) 0.00495(6) 0.00529(8) -0.00085(6) 0.00039(6) -0.00170(6)
C2 0.00544(7) 0.00521(7) 0.00469(7) -0.00137(6) 0.00034(6) -0.00149(6)
C3 0.00556(7) 0.00506(7) 0.00600(8) -0.00119(6) 0.00081(7) -0.00183(6)
C4 0.00514(6) 0.00491(6) 0.00470(7) -0.00117(5) 0.00058(6) -0.00165(6)
C5 0.00632(7) 0.00596(7) 0.00522(8) -0.00098(6) 0.00047(7) -0.00184(6)
C6 0.00543(6) 0.00549(7) 0.00499(7) -0.00156(6) 0.00077(6) -0.00188(6)
C7 0.00595(7) 0.00512(7) 0.00477(7) -0.00131(6) 0.00054(6) -0.00154(6)
C8 0.00592(7) 0.00562(7) 0.00608(8) -0.00112(6) 0.00054(7) -0.00211(6)
C9 0.00701(8) 0.00556(7) 0.00623(8) -0.00077(6) -0.00006(7) -0.00145(6)
C10 0.00875(8) 0.00804(8) 0.00764(9) -0.00209(7) 0.00133(8) -0.00363(7)
C11 0.00562(7) 0.00513(6) 0.00485(7) -0.00103(6) 0.00045(6) -0.00135(6)
C12 0.00891(8) 0.00823(8) 0.00522(8) -0.00274(7) 0.00043(7) -0.00205(7)
C13 0.00643(7) 0.00690(7) 0.00518(8) -0.00116(6) 0.00076(7) -0.00242(6)
C14 0.00696(7) 0.00606(7) 0.00510(8) -0.00143(6) 0.00105(7) -0.00201(6)
C15 0.00742(8) 0.00579(7) 0.00512(8) -0.00121(6) 0.00014(7) -0.00130(6)
H2 0.020(4) 0.012(3) 0.018(4) 0.011(3) -0.001(4) -0.005(3)
H3 0.022(4) 0.018(4) 0.023(4) 0.001(3) 0.010(4) -0.004(3)
H4 0.023(4) 0.046(6) 0.046(6) -0.020(4) 0.008(4) -0.029(5)
H5 0.022(4) 0.032(5) 0.017(5) -0.016(4) 0.010(4) -0.013(4)
H6 0.036(4) 0.030(5) 0.008(4) -0.014(4) 0.000(4) -0.004(4)
H7 0.021(5) 0.036(5) 0.023(5) 0.006(4) -0.001(4) -0.008(4)
H8 0.018(4) 0.022(4) 0.020(4) 0.005(4) -0.007(4) 0.002(3)
H9 0.031(5) 0.023(4) 0.027(5) 0.003(4) 0.013(4) -0.013(4)
H10 0.058(5) 0.034(6) 0.024(5) -0.031(5) 0.001(4) -0.018(5)
H11 0.031(4) 0.029(5) 0.020(4) -0.011(4) -0.001(4) 0.006(4)
H12 0.054(5) 0.061(7) 0.023(5) -0.042(5) 0.013(4) -0.008(5)

